c An instance of conditional planning (by rintanen@informatik.uni-freiburg.de)
p cnf 235 2002
e 19 20 21 22 23 24 25 26 27 28 29 30 31 32 33 34 35 36 37 38 39 40 41 42 43 44 45 46 47 48 49 50 51 52 53 54 55 56 57 58 59 60 61 62 63 64 65 66 67 68 69 70 71 72 73 74 75 76 77 78 79 80 81 82 83 84 85 86 87 88 89 90 91 92 93 94 95 96 97 98 99 100 101 102 103 104 105 106 107 108 109 110 111 112 113 114 115 116 117 118 119 120 121 122 123 124 125 126 127 128 129 130 131 132 133 134 135 136 137 138 139 140 141 142 143 144 145 146 147 148 149 150 151 152 153 154 155 156 157 158 159 160 161 162 163 164 165 166 167 168 169 170 171 172 173 174 175 176 177 178 179 180 181 182 183 184 185 186 187 188 189 190 191 192 193 194 195 196 197 198 0
a 208 207 209 0
e 1 2 3 4 5 6 7 8 9 10 11 12 13 14 15 16 17 18 199 200 201 202 203 204 205 206 210 211 212 213 214 215 216 217 218 219 220 221 222 223 224 225 226 227 228 229 230 231 232 233 234 235 0
-207 -208 -210 209 0
-207 -208 -211 209 0
-207 -208 -212 209 0
-207 -208 -213 209 0
-207 -208 -214 209 0
-207 -208 209 215 0
-207 -208 -216 209 0
-207 -208 -217 209 0
-208 -209 -210 207 0
-208 -209 -211 207 0
-208 -209 -212 207 0
-208 -209 -213 207 0
-208 -209 207 214 0
-208 -209 -215 207 0
-208 -209 -216 207 0
-208 -209 -217 207 0
-208 -210 207 209 0
-208 -211 207 209 0
-208 -212 207 209 0
-208 207 209 213 0
-208 -214 207 209 0
-208 -215 207 209 0
-208 -216 207 209 0
-208 -217 207 209 0
-207 -209 -210 208 0
-207 -209 -211 208 0
-207 -209 208 212 0
-207 -209 -213 208 0
-207 -209 -214 208 0
-207 -209 -215 208 0
-207 -209 -216 208 0
-207 -209 -217 208 0
-207 -210 208 209 0
-207 208 209 211 0
-207 -212 208 209 0
-207 -213 208 209 0
-207 -214 208 209 0
-207 -215 208 209 0
-207 -216 208 209 0
-207 -217 208 209 0
-209 207 208 210 0
-209 -211 207 208 0
-209 -212 207 208 0
-209 -213 207 208 0
-209 -214 207 208 0
-209 -215 207 208 0
-209 -216 207 208 0
-209 -217 207 208 0
-210 207 208 209 0
-211 207 208 209 0
-212 207 208 209 0
-213 207 208 209 0
-214 207 208 209 0
-215 207 208 209 0
-216 207 208 209 0
207 208 209 217 0
-207 -208 -209 -210 0
-207 -208 -209 -211 0
-207 -208 -209 -212 0
-207 -208 -209 -213 0
-207 -208 -209 -214 0
-207 -208 -209 -215 0
-207 -208 -209 216 0
-207 -208 -209 -217 0
-218 0
-219 0
-220 0
-221 0
-222 0
-223 0
-224 0
-225 0
-226 0
-227 0
-228 0
-229 0
-230 0
-231 0
-232 0
-233 0
-234 0
-235 0
-19 -235 0
-19 -227 0
-21 -228 0
-21 -235 0
-23 -229 0
-23 -235 0
-25 -230 0
-25 -235 0
-27 -231 0
-27 -235 0
-29 -232 0
-29 -235 0
-31 -233 0
-31 -235 0
-33 -234 0
-33 -235 0
-37 -218 0
-37 -227 0
-39 -218 0
-39 -228 0
-41 -218 0
-41 -229 0
-43 -218 0
-43 -230 0
-45 -218 0
-45 -231 0
-47 -218 0
-47 -232 0
-49 -218 0
-49 -233 0
-51 -218 0
-51 -234 0
-55 -219 0
-55 -227 0
-57 -219 0
-57 -228 0
-59 -219 0
-59 -229 0
-61 -219 0
-61 -230 0
-63 -219 0
-63 -231 0
-65 -219 0
-65 -232 0
-67 -219 0
-67 -233 0
-69 -219 0
-69 -234 0
-73 -220 0
-73 -227 0
-75 -220 0
-75 -228 0
-77 -220 0
-77 -229 0
-79 -220 0
-79 -230 0
-81 -220 0
-81 -231 0
-83 -220 0
-83 -232 0
-85 -220 0
-85 -233 0
-87 -220 0
-87 -234 0
-91 -221 0
-91 -227 0
-93 -221 0
-93 -228 0
-95 -221 0
-95 -229 0
-97 -221 0
-97 -230 0
-99 -221 0
-99 -231 0
-101 -221 0
-101 -232 0
-103 -221 0
-103 -233 0
-105 -221 0
-105 -234 0
-109 -222 0
-109 -227 0
-111 -222 0
-111 -228 0
-113 -222 0
-113 -229 0
-115 -222 0
-115 -230 0
-117 -222 0
-117 -231 0
-119 -222 0
-119 -232 0
-121 -222 0
-121 -233 0
-123 -222 0
-123 -234 0
-127 -223 0
-127 -227 0
-129 -223 0
-129 -228 0
-131 -223 0
-131 -229 0
-133 -223 0
-133 -230 0
-135 -223 0
-135 -231 0
-137 -223 0
-137 -232 0
-139 -223 0
-139 -233 0
-141 -223 0
-141 -234 0
-145 -224 0
-145 -227 0
-147 -224 0
-147 -228 0
-149 -224 0
-149 -229 0
-151 -224 0
-151 -230 0
-153 -224 0
-153 -231 0
-155 -224 0
-155 -232 0
-157 -224 0
-157 -233 0
-159 -224 0
-159 -234 0
-163 -225 0
-163 -227 0
-165 -225 0
-165 -228 0
-167 -225 0
-167 -229 0
-169 -225 0
-169 -230 0
-171 -225 0
-171 -231 0
-173 -225 0
-173 -232 0
-175 -225 0
-175 -233 0
-177 -225 0
-177 -234 0
-181 -226 0
-181 -227 0
-183 -226 0
-183 -228 0
-185 -226 0
-185 -229 0
-187 -226 0
-187 -230 0
-189 -226 0
-189 -231 0
-191 -226 0
-191 -232 0
-193 -226 0
-193 -233 0
-195 -226 0
-195 -234 0
-34 235 0
-52 218 0
-70 219 0
-88 220 0
-106 221 0
-124 222 0
-142 223 0
-160 224 0
-178 225 0
-196 226 0
-19 2 0
-19 -199 0
-19 1 0
-21 3 0
-21 -200 0
-21 2 0
-23 4 0
-23 -201 0
-23 2 0
-25 5 0
-25 -202 0
-25 2 0
-27 6 0
-27 -203 0
-27 2 0
-29 7 0
-29 -204 0
-29 2 0
-31 8 0
-31 -205 0
-31 2 0
-33 9 0
-33 -206 0
-33 2 0
-37 10 0
-37 -199 0
-37 1 0
-39 10 0
-39 -200 0
-39 3 0
-41 10 0
-41 -201 0
-41 4 0
-43 10 0
-43 -202 0
-43 5 0
-45 10 0
-45 -203 0
-45 6 0
-47 10 0
-47 -204 0
-47 7 0
-49 10 0
-49 -205 0
-49 8 0
-51 10 0
-51 -206 0
-51 9 0
-55 11 0
-55 -199 0
-55 1 0
-57 11 0
-57 -200 0
-57 3 0
-59 11 0
-59 -201 0
-59 4 0
-61 11 0
-61 -202 0
-61 5 0
-63 11 0
-63 -203 0
-63 6 0
-65 11 0
-65 -204 0
-65 7 0
-67 11 0
-67 -205 0
-67 8 0
-69 11 0
-69 -206 0
-69 9 0
-73 12 0
-73 -199 0
-73 1 0
-75 12 0
-75 -200 0
-75 3 0
-77 12 0
-77 -201 0
-77 4 0
-79 12 0
-79 -202 0
-79 5 0
-81 12 0
-81 -203 0
-81 6 0
-83 12 0
-83 -204 0
-83 7 0
-85 12 0
-85 -205 0
-85 8 0
-87 12 0
-87 -206 0
-87 9 0
-91 13 0
-91 -199 0
-91 1 0
-93 13 0
-93 -200 0
-93 3 0
-95 13 0
-95 -201 0
-95 4 0
-97 13 0
-97 -202 0
-97 5 0
-99 13 0
-99 -203 0
-99 6 0
-101 13 0
-101 -204 0
-101 7 0
-103 13 0
-103 -205 0
-103 8 0
-105 13 0
-105 -206 0
-105 9 0
-109 14 0
-109 -199 0
-109 1 0
-111 14 0
-111 -200 0
-111 3 0
-113 14 0
-113 -201 0
-113 4 0
-115 14 0
-115 -202 0
-115 5 0
-117 14 0
-117 -203 0
-117 6 0
-119 14 0
-119 -204 0
-119 7 0
-121 14 0
-121 -205 0
-121 8 0
-123 14 0
-123 -206 0
-123 9 0
-127 15 0
-127 -199 0
-127 1 0
-129 15 0
-129 -200 0
-129 3 0
-131 15 0
-131 -201 0
-131 4 0
-133 15 0
-133 -202 0
-133 5 0
-135 15 0
-135 -203 0
-135 6 0
-137 15 0
-137 -204 0
-137 7 0
-139 15 0
-139 -205 0
-139 8 0
-141 15 0
-141 -206 0
-141 9 0
-145 16 0
-145 -199 0
-145 1 0
-147 16 0
-147 -200 0
-147 3 0
-149 16 0
-149 -201 0
-149 4 0
-151 16 0
-151 -202 0
-151 5 0
-153 16 0
-153 -203 0
-153 6 0
-155 16 0
-155 -204 0
-155 7 0
-157 16 0
-157 -205 0
-157 8 0
-159 16 0
-159 -206 0
-159 9 0
-163 17 0
-163 -199 0
-163 1 0
-165 17 0
-165 -200 0
-165 3 0
-167 17 0
-167 -201 0
-167 4 0
-169 17 0
-169 -202 0
-169 5 0
-171 17 0
-171 -203 0
-171 6 0
-173 17 0
-173 -204 0
-173 7 0
-175 17 0
-175 -205 0
-175 8 0
-177 17 0
-177 -206 0
-177 9 0
-181 18 0
-181 -199 0
-181 1 0
-183 18 0
-183 -200 0
-183 3 0
-185 18 0
-185 -201 0
-185 4 0
-187 18 0
-187 -202 0
-187 5 0
-189 18 0
-189 -203 0
-189 6 0
-191 18 0
-191 -204 0
-191 7 0
-193 18 0
-193 -205 0
-193 8 0
-195 18 0
-195 -206 0
-195 9 0
-2 -34 0
-10 -52 0
-11 -70 0
-12 -88 0
-13 -106 0
-14 -124 0
-15 -142 0
-16 -160 0
-17 -178 0
-18 -196 0
-1 19 37 55 73 91 109 127 145 163 181 227 0
-227 1 0
-2 19 21 23 25 27 29 31 33 235 0
-235 2 34 0
-199 217 0
-217 19 37 55 73 91 109 127 145 163 181 199 0
-3 21 39 57 75 93 111 129 147 165 183 228 0
-228 3 0
-200 210 0
-210 21 39 57 75 93 111 129 147 165 183 200 0
-4 23 41 59 77 95 113 131 149 167 185 229 0
-229 4 0
-201 211 0
-211 23 41 59 77 95 113 131 149 167 185 201 0
-5 25 43 61 79 97 115 133 151 169 187 230 0
-230 5 0
-202 212 0
-212 25 43 61 79 97 115 133 151 169 187 202 0
-6 27 45 63 81 99 117 135 153 171 189 231 0
-231 6 0
-203 213 0
-213 27 45 63 81 99 117 135 153 171 189 203 0
-7 29 47 65 83 101 119 137 155 173 191 232 0
-232 7 0
-204 214 0
-214 29 47 65 83 101 119 137 155 173 191 204 0
-8 31 49 67 85 103 121 139 157 175 193 233 0
-233 8 0
-205 215 0
-215 31 49 67 85 103 121 139 157 175 193 205 0
-9 33 51 69 87 105 123 141 159 177 195 234 0
-234 9 0
-206 216 0
-216 33 51 69 87 105 123 141 159 177 195 206 0
-10 37 39 41 43 45 47 49 51 218 0
-218 10 52 0
-11 55 57 59 61 63 65 67 69 219 0
-219 11 70 0
-12 73 75 77 79 81 83 85 87 220 0
-220 12 88 0
-13 91 93 95 97 99 101 103 105 221 0
-221 13 106 0
-14 109 111 113 115 117 119 121 123 222 0
-222 14 124 0
-15 127 129 131 133 135 137 139 141 223 0
-223 15 142 0
-16 145 147 149 151 153 155 157 159 224 0
-224 16 160 0
-17 163 165 167 169 171 173 175 177 225 0
-225 17 178 0
-18 181 183 185 187 189 191 193 195 226 0
-226 18 196 0
-19 -21 0
-20 -22 0
-19 -23 0
-20 -24 0
-19 -25 0
-20 -26 0
-19 -27 0
-20 -28 0
-19 -29 0
-20 -30 0
-19 -31 0
-20 -32 0
-19 -33 0
-20 -35 0
-19 -37 0
-20 -38 0
-19 -55 0
-20 -56 0
-19 -73 0
-20 -74 0
-19 -91 0
-20 -92 0
-19 -109 0
-20 -110 0
-19 -127 0
-20 -128 0
-19 -145 0
-20 -146 0
-19 -163 0
-20 -164 0
-19 -181 0
-20 -182 0
-19 -34 0
-20 -36 0
-21 -23 0
-22 -24 0
-21 -25 0
-22 -26 0
-21 -27 0
-22 -28 0
-21 -29 0
-22 -30 0
-21 -31 0
-22 -32 0
-21 -33 0
-22 -35 0
-21 -39 0
-22 -40 0
-21 -57 0
-22 -58 0
-21 -75 0
-22 -76 0
-21 -93 0
-22 -94 0
-21 -111 0
-22 -112 0
-21 -129 0
-22 -130 0
-21 -147 0
-22 -148 0
-21 -165 0
-22 -166 0
-21 -183 0
-22 -184 0
-21 -34 0
-22 -36 0
-23 -25 0
-24 -26 0
-23 -27 0
-24 -28 0
-23 -29 0
-24 -30 0
-23 -31 0
-24 -32 0
-23 -33 0
-24 -35 0
-23 -41 0
-24 -42 0
-23 -59 0
-24 -60 0
-23 -77 0
-24 -78 0
-23 -95 0
-24 -96 0
-23 -113 0
-24 -114 0
-23 -131 0
-24 -132 0
-23 -149 0
-24 -150 0
-23 -167 0
-24 -168 0
-23 -185 0
-24 -186 0
-23 -34 0
-24 -36 0
-25 -27 0
-26 -28 0
-25 -29 0
-26 -30 0
-25 -31 0
-26 -32 0
-25 -33 0
-26 -35 0
-25 -43 0
-26 -44 0
-25 -61 0
-26 -62 0
-25 -79 0
-26 -80 0
-25 -97 0
-26 -98 0
-25 -115 0
-26 -116 0
-25 -133 0
-26 -134 0
-25 -151 0
-26 -152 0
-25 -169 0
-26 -170 0
-25 -187 0
-26 -188 0
-25 -34 0
-26 -36 0
-27 -29 0
-28 -30 0
-27 -31 0
-28 -32 0
-27 -33 0
-28 -35 0
-27 -45 0
-28 -46 0
-27 -63 0
-28 -64 0
-27 -81 0
-28 -82 0
-27 -99 0
-28 -100 0
-27 -117 0
-28 -118 0
-27 -135 0
-28 -136 0
-27 -153 0
-28 -154 0
-27 -171 0
-28 -172 0
-27 -189 0
-28 -190 0
-27 -34 0
-28 -36 0
-29 -31 0
-30 -32 0
-29 -33 0
-30 -35 0
-29 -47 0
-30 -48 0
-29 -65 0
-30 -66 0
-29 -83 0
-30 -84 0
-29 -101 0
-30 -102 0
-29 -119 0
-30 -120 0
-29 -137 0
-30 -138 0
-29 -155 0
-30 -156 0
-29 -173 0
-30 -174 0
-29 -191 0
-30 -192 0
-29 -34 0
-30 -36 0
-31 -33 0
-32 -35 0
-31 -49 0
-32 -50 0
-31 -67 0
-32 -68 0
-31 -85 0
-32 -86 0
-31 -103 0
-32 -104 0
-31 -121 0
-32 -122 0
-31 -139 0
-32 -140 0
-31 -157 0
-32 -158 0
-31 -175 0
-32 -176 0
-31 -193 0
-32 -194 0
-31 -34 0
-32 -36 0
-33 -51 0
-35 -53 0
-33 -69 0
-35 -71 0
-33 -87 0
-35 -89 0
-33 -105 0
-35 -107 0
-33 -123 0
-35 -125 0
-33 -141 0
-35 -143 0
-33 -159 0
-35 -161 0
-33 -177 0
-35 -179 0
-33 -195 0
-35 -197 0
-33 -34 0
-35 -36 0
-37 -39 0
-38 -40 0
-37 -41 0
-38 -42 0
-37 -43 0
-38 -44 0
-37 -45 0
-38 -46 0
-37 -47 0
-38 -48 0
-37 -49 0
-38 -50 0
-37 -51 0
-38 -53 0
-37 -55 0
-38 -56 0
-37 -73 0
-38 -74 0
-37 -91 0
-38 -92 0
-37 -109 0
-38 -110 0
-37 -127 0
-38 -128 0
-37 -145 0
-38 -146 0
-37 -163 0
-38 -164 0
-37 -181 0
-38 -182 0
-37 -52 0
-38 -54 0
-39 -41 0
-40 -42 0
-39 -43 0
-40 -44 0
-39 -45 0
-40 -46 0
-39 -47 0
-40 -48 0
-39 -49 0
-40 -50 0
-39 -51 0
-40 -53 0
-39 -57 0
-40 -58 0
-39 -75 0
-40 -76 0
-39 -93 0
-40 -94 0
-39 -111 0
-40 -112 0
-39 -129 0
-40 -130 0
-39 -147 0
-40 -148 0
-39 -165 0
-40 -166 0
-39 -183 0
-40 -184 0
-39 -52 0
-40 -54 0
-41 -43 0
-42 -44 0
-41 -45 0
-42 -46 0
-41 -47 0
-42 -48 0
-41 -49 0
-42 -50 0
-41 -51 0
-42 -53 0
-41 -59 0
-42 -60 0
-41 -77 0
-42 -78 0
-41 -95 0
-42 -96 0
-41 -113 0
-42 -114 0
-41 -131 0
-42 -132 0
-41 -149 0
-42 -150 0
-41 -167 0
-42 -168 0
-41 -185 0
-42 -186 0
-41 -52 0
-42 -54 0
-43 -45 0
-44 -46 0
-43 -47 0
-44 -48 0
-43 -49 0
-44 -50 0
-43 -51 0
-44 -53 0
-43 -61 0
-44 -62 0
-43 -79 0
-44 -80 0
-43 -97 0
-44 -98 0
-43 -115 0
-44 -116 0
-43 -133 0
-44 -134 0
-43 -151 0
-44 -152 0
-43 -169 0
-44 -170 0
-43 -187 0
-44 -188 0
-43 -52 0
-44 -54 0
-45 -47 0
-46 -48 0
-45 -49 0
-46 -50 0
-45 -51 0
-46 -53 0
-45 -63 0
-46 -64 0
-45 -81 0
-46 -82 0
-45 -99 0
-46 -100 0
-45 -117 0
-46 -118 0
-45 -135 0
-46 -136 0
-45 -153 0
-46 -154 0
-45 -171 0
-46 -172 0
-45 -189 0
-46 -190 0
-45 -52 0
-46 -54 0
-47 -49 0
-48 -50 0
-47 -51 0
-48 -53 0
-47 -65 0
-48 -66 0
-47 -83 0
-48 -84 0
-47 -101 0
-48 -102 0
-47 -119 0
-48 -120 0
-47 -137 0
-48 -138 0
-47 -155 0
-48 -156 0
-47 -173 0
-48 -174 0
-47 -191 0
-48 -192 0
-47 -52 0
-48 -54 0
-49 -51 0
-50 -53 0
-49 -67 0
-50 -68 0
-49 -85 0
-50 -86 0
-49 -103 0
-50 -104 0
-49 -121 0
-50 -122 0
-49 -139 0
-50 -140 0
-49 -157 0
-50 -158 0
-49 -175 0
-50 -176 0
-49 -193 0
-50 -194 0
-49 -52 0
-50 -54 0
-51 -69 0
-53 -71 0
-51 -87 0
-53 -89 0
-51 -105 0
-53 -107 0
-51 -123 0
-53 -125 0
-51 -141 0
-53 -143 0
-51 -159 0
-53 -161 0
-51 -177 0
-53 -179 0
-51 -195 0
-53 -197 0
-51 -52 0
-53 -54 0
-55 -57 0
-56 -58 0
-55 -59 0
-56 -60 0
-55 -61 0
-56 -62 0
-55 -63 0
-56 -64 0
-55 -65 0
-56 -66 0
-55 -67 0
-56 -68 0
-55 -69 0
-56 -71 0
-55 -73 0
-56 -74 0
-55 -91 0
-56 -92 0
-55 -109 0
-56 -110 0
-55 -127 0
-56 -128 0
-55 -145 0
-56 -146 0
-55 -163 0
-56 -164 0
-55 -181 0
-56 -182 0
-55 -70 0
-56 -72 0
-57 -59 0
-58 -60 0
-57 -61 0
-58 -62 0
-57 -63 0
-58 -64 0
-57 -65 0
-58 -66 0
-57 -67 0
-58 -68 0
-57 -69 0
-58 -71 0
-57 -75 0
-58 -76 0
-57 -93 0
-58 -94 0
-57 -111 0
-58 -112 0
-57 -129 0
-58 -130 0
-57 -147 0
-58 -148 0
-57 -165 0
-58 -166 0
-57 -183 0
-58 -184 0
-57 -70 0
-58 -72 0
-59 -61 0
-60 -62 0
-59 -63 0
-60 -64 0
-59 -65 0
-60 -66 0
-59 -67 0
-60 -68 0
-59 -69 0
-60 -71 0
-59 -77 0
-60 -78 0
-59 -95 0
-60 -96 0
-59 -113 0
-60 -114 0
-59 -131 0
-60 -132 0
-59 -149 0
-60 -150 0
-59 -167 0
-60 -168 0
-59 -185 0
-60 -186 0
-59 -70 0
-60 -72 0
-61 -63 0
-62 -64 0
-61 -65 0
-62 -66 0
-61 -67 0
-62 -68 0
-61 -69 0
-62 -71 0
-61 -79 0
-62 -80 0
-61 -97 0
-62 -98 0
-61 -115 0
-62 -116 0
-61 -133 0
-62 -134 0
-61 -151 0
-62 -152 0
-61 -169 0
-62 -170 0
-61 -187 0
-62 -188 0
-61 -70 0
-62 -72 0
-63 -65 0
-64 -66 0
-63 -67 0
-64 -68 0
-63 -69 0
-64 -71 0
-63 -81 0
-64 -82 0
-63 -99 0
-64 -100 0
-63 -117 0
-64 -118 0
-63 -135 0
-64 -136 0
-63 -153 0
-64 -154 0
-63 -171 0
-64 -172 0
-63 -189 0
-64 -190 0
-63 -70 0
-64 -72 0
-65 -67 0
-66 -68 0
-65 -69 0
-66 -71 0
-65 -83 0
-66 -84 0
-65 -101 0
-66 -102 0
-65 -119 0
-66 -120 0
-65 -137 0
-66 -138 0
-65 -155 0
-66 -156 0
-65 -173 0
-66 -174 0
-65 -191 0
-66 -192 0
-65 -70 0
-66 -72 0
-67 -69 0
-68 -71 0
-67 -85 0
-68 -86 0
-67 -103 0
-68 -104 0
-67 -121 0
-68 -122 0
-67 -139 0
-68 -140 0
-67 -157 0
-68 -158 0
-67 -175 0
-68 -176 0
-67 -193 0
-68 -194 0
-67 -70 0
-68 -72 0
-69 -87 0
-71 -89 0
-69 -105 0
-71 -107 0
-69 -123 0
-71 -125 0
-69 -141 0
-71 -143 0
-69 -159 0
-71 -161 0
-69 -177 0
-71 -179 0
-69 -195 0
-71 -197 0
-69 -70 0
-71 -72 0
-73 -75 0
-74 -76 0
-73 -77 0
-74 -78 0
-73 -79 0
-74 -80 0
-73 -81 0
-74 -82 0
-73 -83 0
-74 -84 0
-73 -85 0
-74 -86 0
-73 -87 0
-74 -89 0
-73 -91 0
-74 -92 0
-73 -109 0
-74 -110 0
-73 -127 0
-74 -128 0
-73 -145 0
-74 -146 0
-73 -163 0
-74 -164 0
-73 -181 0
-74 -182 0
-73 -88 0
-74 -90 0
-75 -77 0
-76 -78 0
-75 -79 0
-76 -80 0
-75 -81 0
-76 -82 0
-75 -83 0
-76 -84 0
-75 -85 0
-76 -86 0
-75 -87 0
-76 -89 0
-75 -93 0
-76 -94 0
-75 -111 0
-76 -112 0
-75 -129 0
-76 -130 0
-75 -147 0
-76 -148 0
-75 -165 0
-76 -166 0
-75 -183 0
-76 -184 0
-75 -88 0
-76 -90 0
-77 -79 0
-78 -80 0
-77 -81 0
-78 -82 0
-77 -83 0
-78 -84 0
-77 -85 0
-78 -86 0
-77 -87 0
-78 -89 0
-77 -95 0
-78 -96 0
-77 -113 0
-78 -114 0
-77 -131 0
-78 -132 0
-77 -149 0
-78 -150 0
-77 -167 0
-78 -168 0
-77 -185 0
-78 -186 0
-77 -88 0
-78 -90 0
-79 -81 0
-80 -82 0
-79 -83 0
-80 -84 0
-79 -85 0
-80 -86 0
-79 -87 0
-80 -89 0
-79 -97 0
-80 -98 0
-79 -115 0
-80 -116 0
-79 -133 0
-80 -134 0
-79 -151 0
-80 -152 0
-79 -169 0
-80 -170 0
-79 -187 0
-80 -188 0
-79 -88 0
-80 -90 0
-81 -83 0
-82 -84 0
-81 -85 0
-82 -86 0
-81 -87 0
-82 -89 0
-81 -99 0
-82 -100 0
-81 -117 0
-82 -118 0
-81 -135 0
-82 -136 0
-81 -153 0
-82 -154 0
-81 -171 0
-82 -172 0
-81 -189 0
-82 -190 0
-81 -88 0
-82 -90 0
-83 -85 0
-84 -86 0
-83 -87 0
-84 -89 0
-83 -101 0
-84 -102 0
-83 -119 0
-84 -120 0
-83 -137 0
-84 -138 0
-83 -155 0
-84 -156 0
-83 -173 0
-84 -174 0
-83 -191 0
-84 -192 0
-83 -88 0
-84 -90 0
-85 -87 0
-86 -89 0
-85 -103 0
-86 -104 0
-85 -121 0
-86 -122 0
-85 -139 0
-86 -140 0
-85 -157 0
-86 -158 0
-85 -175 0
-86 -176 0
-85 -193 0
-86 -194 0
-85 -88 0
-86 -90 0
-87 -105 0
-89 -107 0
-87 -123 0
-89 -125 0
-87 -141 0
-89 -143 0
-87 -159 0
-89 -161 0
-87 -177 0
-89 -179 0
-87 -195 0
-89 -197 0
-87 -88 0
-89 -90 0
-91 -93 0
-92 -94 0
-91 -95 0
-92 -96 0
-91 -97 0
-92 -98 0
-91 -99 0
-92 -100 0
-91 -101 0
-92 -102 0
-91 -103 0
-92 -104 0
-91 -105 0
-92 -107 0
-91 -109 0
-92 -110 0
-91 -127 0
-92 -128 0
-91 -145 0
-92 -146 0
-91 -163 0
-92 -164 0
-91 -181 0
-92 -182 0
-91 -106 0
-92 -108 0
-93 -95 0
-94 -96 0
-93 -97 0
-94 -98 0
-93 -99 0
-94 -100 0
-93 -101 0
-94 -102 0
-93 -103 0
-94 -104 0
-93 -105 0
-94 -107 0
-93 -111 0
-94 -112 0
-93 -129 0
-94 -130 0
-93 -147 0
-94 -148 0
-93 -165 0
-94 -166 0
-93 -183 0
-94 -184 0
-93 -106 0
-94 -108 0
-95 -97 0
-96 -98 0
-95 -99 0
-96 -100 0
-95 -101 0
-96 -102 0
-95 -103 0
-96 -104 0
-95 -105 0
-96 -107 0
-95 -113 0
-96 -114 0
-95 -131 0
-96 -132 0
-95 -149 0
-96 -150 0
-95 -167 0
-96 -168 0
-95 -185 0
-96 -186 0
-95 -106 0
-96 -108 0
-97 -99 0
-98 -100 0
-97 -101 0
-98 -102 0
-97 -103 0
-98 -104 0
-97 -105 0
-98 -107 0
-97 -115 0
-98 -116 0
-97 -133 0
-98 -134 0
-97 -151 0
-98 -152 0
-97 -169 0
-98 -170 0
-97 -187 0
-98 -188 0
-97 -106 0
-98 -108 0
-99 -101 0
-100 -102 0
-99 -103 0
-100 -104 0
-99 -105 0
-100 -107 0
-99 -117 0
-100 -118 0
-99 -135 0
-100 -136 0
-99 -153 0
-100 -154 0
-99 -171 0
-100 -172 0
-99 -189 0
-100 -190 0
-99 -106 0
-100 -108 0
-101 -103 0
-102 -104 0
-101 -105 0
-102 -107 0
-101 -119 0
-102 -120 0
-101 -137 0
-102 -138 0
-101 -155 0
-102 -156 0
-101 -173 0
-102 -174 0
-101 -191 0
-102 -192 0
-101 -106 0
-102 -108 0
-103 -105 0
-104 -107 0
-103 -121 0
-104 -122 0
-103 -139 0
-104 -140 0
-103 -157 0
-104 -158 0
-103 -175 0
-104 -176 0
-103 -193 0
-104 -194 0
-103 -106 0
-104 -108 0
-105 -123 0
-107 -125 0
-105 -141 0
-107 -143 0
-105 -159 0
-107 -161 0
-105 -177 0
-107 -179 0
-105 -195 0
-107 -197 0
-105 -106 0
-107 -108 0
-109 -111 0
-110 -112 0
-109 -113 0
-110 -114 0
-109 -115 0
-110 -116 0
-109 -117 0
-110 -118 0
-109 -119 0
-110 -120 0
-109 -121 0
-110 -122 0
-109 -123 0
-110 -125 0
-109 -127 0
-110 -128 0
-109 -145 0
-110 -146 0
-109 -163 0
-110 -164 0
-109 -181 0
-110 -182 0
-109 -124 0
-110 -126 0
-111 -113 0
-112 -114 0
-111 -115 0
-112 -116 0
-111 -117 0
-112 -118 0
-111 -119 0
-112 -120 0
-111 -121 0
-112 -122 0
-111 -123 0
-112 -125 0
-111 -129 0
-112 -130 0
-111 -147 0
-112 -148 0
-111 -165 0
-112 -166 0
-111 -183 0
-112 -184 0
-111 -124 0
-112 -126 0
-113 -115 0
-114 -116 0
-113 -117 0
-114 -118 0
-113 -119 0
-114 -120 0
-113 -121 0
-114 -122 0
-113 -123 0
-114 -125 0
-113 -131 0
-114 -132 0
-113 -149 0
-114 -150 0
-113 -167 0
-114 -168 0
-113 -185 0
-114 -186 0
-113 -124 0
-114 -126 0
-115 -117 0
-116 -118 0
-115 -119 0
-116 -120 0
-115 -121 0
-116 -122 0
-115 -123 0
-116 -125 0
-115 -133 0
-116 -134 0
-115 -151 0
-116 -152 0
-115 -169 0
-116 -170 0
-115 -187 0
-116 -188 0
-115 -124 0
-116 -126 0
-117 -119 0
-118 -120 0
-117 -121 0
-118 -122 0
-117 -123 0
-118 -125 0
-117 -135 0
-118 -136 0
-117 -153 0
-118 -154 0
-117 -171 0
-118 -172 0
-117 -189 0
-118 -190 0
-117 -124 0
-118 -126 0
-119 -121 0
-120 -122 0
-119 -123 0
-120 -125 0
-119 -137 0
-120 -138 0
-119 -155 0
-120 -156 0
-119 -173 0
-120 -174 0
-119 -191 0
-120 -192 0
-119 -124 0
-120 -126 0
-121 -123 0
-122 -125 0
-121 -139 0
-122 -140 0
-121 -157 0
-122 -158 0
-121 -175 0
-122 -176 0
-121 -193 0
-122 -194 0
-121 -124 0
-122 -126 0
-123 -141 0
-125 -143 0
-123 -159 0
-125 -161 0
-123 -177 0
-125 -179 0
-123 -195 0
-125 -197 0
-123 -124 0
-125 -126 0
-127 -129 0
-128 -130 0
-127 -131 0
-128 -132 0
-127 -133 0
-128 -134 0
-127 -135 0
-128 -136 0
-127 -137 0
-128 -138 0
-127 -139 0
-128 -140 0
-127 -141 0
-128 -143 0
-127 -145 0
-128 -146 0
-127 -163 0
-128 -164 0
-127 -181 0
-128 -182 0
-127 -142 0
-128 -144 0
-129 -131 0
-130 -132 0
-129 -133 0
-130 -134 0
-129 -135 0
-130 -136 0
-129 -137 0
-130 -138 0
-129 -139 0
-130 -140 0
-129 -141 0
-130 -143 0
-129 -147 0
-130 -148 0
-129 -165 0
-130 -166 0
-129 -183 0
-130 -184 0
-129 -142 0
-130 -144 0
-131 -133 0
-132 -134 0
-131 -135 0
-132 -136 0
-131 -137 0
-132 -138 0
-131 -139 0
-132 -140 0
-131 -141 0
-132 -143 0
-131 -149 0
-132 -150 0
-131 -167 0
-132 -168 0
-131 -185 0
-132 -186 0
-131 -142 0
-132 -144 0
-133 -135 0
-134 -136 0
-133 -137 0
-134 -138 0
-133 -139 0
-134 -140 0
-133 -141 0
-134 -143 0
-133 -151 0
-134 -152 0
-133 -169 0
-134 -170 0
-133 -187 0
-134 -188 0
-133 -142 0
-134 -144 0
-135 -137 0
-136 -138 0
-135 -139 0
-136 -140 0
-135 -141 0
-136 -143 0
-135 -153 0
-136 -154 0
-135 -171 0
-136 -172 0
-135 -189 0
-136 -190 0
-135 -142 0
-136 -144 0
-137 -139 0
-138 -140 0
-137 -141 0
-138 -143 0
-137 -155 0
-138 -156 0
-137 -173 0
-138 -174 0
-137 -191 0
-138 -192 0
-137 -142 0
-138 -144 0
-139 -141 0
-140 -143 0
-139 -157 0
-140 -158 0
-139 -175 0
-140 -176 0
-139 -193 0
-140 -194 0
-139 -142 0
-140 -144 0
-141 -159 0
-143 -161 0
-141 -177 0
-143 -179 0
-141 -195 0
-143 -197 0
-141 -142 0
-143 -144 0
-145 -147 0
-146 -148 0
-145 -149 0
-146 -150 0
-145 -151 0
-146 -152 0
-145 -153 0
-146 -154 0
-145 -155 0
-146 -156 0
-145 -157 0
-146 -158 0
-145 -159 0
-146 -161 0
-145 -163 0
-146 -164 0
-145 -181 0
-146 -182 0
-145 -160 0
-146 -162 0
-147 -149 0
-148 -150 0
-147 -151 0
-148 -152 0
-147 -153 0
-148 -154 0
-147 -155 0
-148 -156 0
-147 -157 0
-148 -158 0
-147 -159 0
-148 -161 0
-147 -165 0
-148 -166 0
-147 -183 0
-148 -184 0
-147 -160 0
-148 -162 0
-149 -151 0
-150 -152 0
-149 -153 0
-150 -154 0
-149 -155 0
-150 -156 0
-149 -157 0
-150 -158 0
-149 -159 0
-150 -161 0
-149 -167 0
-150 -168 0
-149 -185 0
-150 -186 0
-149 -160 0
-150 -162 0
-151 -153 0
-152 -154 0
-151 -155 0
-152 -156 0
-151 -157 0
-152 -158 0
-151 -159 0
-152 -161 0
-151 -169 0
-152 -170 0
-151 -187 0
-152 -188 0
-151 -160 0
-152 -162 0
-153 -155 0
-154 -156 0
-153 -157 0
-154 -158 0
-153 -159 0
-154 -161 0
-153 -171 0
-154 -172 0
-153 -189 0
-154 -190 0
-153 -160 0
-154 -162 0
-155 -157 0
-156 -158 0
-155 -159 0
-156 -161 0
-155 -173 0
-156 -174 0
-155 -191 0
-156 -192 0
-155 -160 0
-156 -162 0
-157 -159 0
-158 -161 0
-157 -175 0
-158 -176 0
-157 -193 0
-158 -194 0
-157 -160 0
-158 -162 0
-159 -177 0
-161 -179 0
-159 -195 0
-161 -197 0
-159 -160 0
-161 -162 0
-163 -165 0
-164 -166 0
-163 -167 0
-164 -168 0
-163 -169 0
-164 -170 0
-163 -171 0
-164 -172 0
-163 -173 0
-164 -174 0
-163 -175 0
-164 -176 0
-163 -177 0
-164 -179 0
-163 -181 0
-164 -182 0
-163 -178 0
-164 -180 0
-165 -167 0
-166 -168 0
-165 -169 0
-166 -170 0
-165 -171 0
-166 -172 0
-165 -173 0
-166 -174 0
-165 -175 0
-166 -176 0
-165 -177 0
-166 -179 0
-165 -183 0
-166 -184 0
-165 -178 0
-166 -180 0
-167 -169 0
-168 -170 0
-167 -171 0
-168 -172 0
-167 -173 0
-168 -174 0
-167 -175 0
-168 -176 0
-167 -177 0
-168 -179 0
-167 -185 0
-168 -186 0
-167 -178 0
-168 -180 0
-169 -171 0
-170 -172 0
-169 -173 0
-170 -174 0
-169 -175 0
-170 -176 0
-169 -177 0
-170 -179 0
-169 -187 0
-170 -188 0
-169 -178 0
-170 -180 0
-171 -173 0
-172 -174 0
-171 -175 0
-172 -176 0
-171 -177 0
-172 -179 0
-171 -189 0
-172 -190 0
-171 -178 0
-172 -180 0
-173 -175 0
-174 -176 0
-173 -177 0
-174 -179 0
-173 -191 0
-174 -192 0
-173 -178 0
-174 -180 0
-175 -177 0
-176 -179 0
-175 -193 0
-176 -194 0
-175 -178 0
-176 -180 0
-177 -195 0
-179 -197 0
-177 -178 0
-179 -180 0
-181 -183 0
-182 -184 0
-181 -185 0
-182 -186 0
-181 -187 0
-182 -188 0
-181 -189 0
-182 -190 0
-181 -191 0
-182 -192 0
-181 -193 0
-182 -194 0
-181 -195 0
-182 -197 0
-181 -196 0
-182 -198 0
-183 -185 0
-184 -186 0
-183 -187 0
-184 -188 0
-183 -189 0
-184 -190 0
-183 -191 0
-184 -192 0
-183 -193 0
-184 -194 0
-183 -195 0
-184 -197 0
-183 -196 0
-184 -198 0
-185 -187 0
-186 -188 0
-185 -189 0
-186 -190 0
-185 -191 0
-186 -192 0
-185 -193 0
-186 -194 0
-185 -195 0
-186 -197 0
-185 -196 0
-186 -198 0
-187 -189 0
-188 -190 0
-187 -191 0
-188 -192 0
-187 -193 0
-188 -194 0
-187 -195 0
-188 -197 0
-187 -196 0
-188 -198 0
-189 -191 0
-190 -192 0
-189 -193 0
-190 -194 0
-189 -195 0
-190 -197 0
-189 -196 0
-190 -198 0
-191 -193 0
-192 -194 0
-191 -195 0
-192 -197 0
-191 -196 0
-192 -198 0
-193 -195 0
-194 -197 0
-193 -196 0
-194 -198 0
-195 -196 0
-197 -198 0
-199 0
-200 0
-201 0
-202 0
-203 0
-204 0
-205 0
-206 0
